100
30
14
31
27
1
32
15
31
4
26
29
16
10
18
12
17
5
28
5
5
1
2
6
25
32
29
11
26
1
12
26
24
18
1
24
11
28
24
3
6
5
25
31
4
3
21
26
31
30
27
12
31
19
27
19
27
27
16
12
25
29
3
15
22
30
16
11
25
2
11
31
31
7
21
6
6
24
1
17
20
31
4
6
27
19
25
2
3
29
8
6
26
17
22
10
7
32
11
30
29
17